
%FILE DATA:	Soccer Computational Problem for MiniZinc Models	%
%AUTHOR:	Jack Wall	%
%CONTACT:  	116397063@umail.ucc.ie			%
%LAST UPDATE:	01/22/2020, 10:43:02						%
%DESCRIPTION: 	340 games played with 40 games left				%

n=20; %number of teams

%Games to play
games=[|16,11|11,12|19,18|3,2|19,3|20,7|6,7|2,6|12,7|8,6|5,10|4,6|6,8|3,11|6,15|12,17|2,12|8,9|18,15|16,19|6,1|16,7|12,8|19,11|18,6|17,18|15,13|19,6|14,15|3,15|4,19|6,3|6,20|20,11|2,11|3,7|19,14|12,16|14,18|4,15|];

%Initial points
iPoints=[40,52,50,43,53,31,48,36,48,52,44,48,49,53,46,47,50,44,37,51];

%POSITION CONSTRAINTS
% [|teamID, operator, position|...]
% operators index:
%  1 for =  operator
%  2 for >  operator
%  3 for >= operator
%  4 for <  operator
%  5 for <= operator
positionConstraints=[|3,4,2|14,4,3|10,4,4|7,4,5|];